50

100 6 319
97 17 421
96 32 361
92 9 392
89 20 303
86 42 362
83 11 334
83 31 332
82 5 388
79 20 471
77 32 300
76 11 289
73 33 219
73 2 227
70 30 443
69 5 467
69 24 383
61 25 189
60 30 463
60 17 386
60 14 453
58 4 281
56 8 310
56 17 356
53 14 218
51 13 202
49 8 278
48 16 187
48 12 287
48 13 457
47 5 319
46 10 415
42 19 213
41 13 203
36 2 357
35 7 264
34 7 450
32 4 229
32 7 330
32 1 247
31 2 248
22 8 424
17 1 467
12 2 402
12 2 387
6 2 370
6 1 165
5 1 75
3 1 224
2 1 240
